NAME : pairopt
TYPE : ACVRP
DIMENSION : 5
EDGE_WEIGHT_TYPE : EXPLICIT
EDGE_WEIGHT_FORMAT : FULL_MATRIX
CAPACITY : 42
VEHICLES : 2
EDGE_WEIGHT_SECTION
100000 -100000 -100000 100000 100000 
100000 100000 1000000 2457 -372 
100000 1000000 100000 2260 423 
0 0 0 100000 2323 
0 0 0 2323 100000 
DEMAND_SECTION
1 0
2 0
3 0
4 41
5 14
DEPOT_SECTION
1
EOF